;; ===================== PROJECTED CANON (QE) =====================
;; Each clause below is entailed by Proj = ∃W.F over the canonical vocabulary.
;; Units appear first for clarity; OR-clauses (SAT-filtered) follow.
;; ==================================================================

;; Unit Bool constraints (entailed)
(assert (not patient_is_pregnant_now))
(assert (not patient_is_breastfeeding_now))
(assert (not patient_has_diagnosis_of_blood_coagulation_disorder_inthehistory))
(assert (not patient_is_exposed_to_diuretic_now))
(assert (not patient_is_exposed_to_glucocorticoid_now))
